unsat
((set-logic NIA)
(declare-fun a!4 () Int)
(declare-fun r!1 () Int)
(declare-fun p!5 () Int)
(declare-fun q!3 () Int)
(declare-fun s!0 () Int)
(declare-fun b!2 () Int)
(proof
(let ((?x1627 (* p00 s00 a!4)))
 (let ((?x859 (* q00 a00 r!1)))
 (let ((?x470 (* r00 b00 p!5)))
 (let ((?x940 (+ ?x470 ?x859 (* (- 1) (* s00 a00 p!5)) (* (- 1) (* p00 b00 r!1)) ?x1627 (* (- 1) (* q00 r00 a!4)))))
 (let (($x631 (>= ?x940 0)))
 (let (($x1447 (= ?x940 0)))
 (let ((?x1630 (* q00 r00 a!4)))
 (let ((?x1503 (* (- 1) ?x1627)))
 (let ((?x1441 (* r00 b00 q!3)))
 (let ((?x1351 (* p00 b00 r!1)))
 (let ((?x980 (* q00 a00 s!0)))
 (let ((?x933 (* s00 a00 p!5)))
 (let ((?x929 (* p00 s00 b!2)))
 (let ((?x1514 (* (- 1) ?x859)))
 (let ((?x1506 (* (- 1) ?x470)))
 (let ((?x1531 (+ ?x1506 ?x1514 (* (- 1) (* q00 r00 b!2)) ?x929 ?x933 (* (- 1) (* p00 b00 s!0)) (* (- 1) (* s00 a00 q!3)) ?x980 ?x1351 ?x1441 ?x1503 ?x1630)))
 (let ((?x341 (* (- 1) q!3)))
 (let ((?x1597 (+ ?x341 p!5)))
 (let ((?x337 (* (- 1) b!2)))
 (let ((?x991 (+ ?x337 a!4)))
 (let ((?x1058 (* (- 1) s!0)))
 (let ((?x1579 (+ ?x1058 r!1)))
 (let ((?x313 (* (- 1) (* ?x1579 ?x991 ?x991 ?x991 ?x1597 ?x1597 ?x1597 b!2 b!2 b!2 q!3))))
 (let ((?x1405 (* (- 1) (* b!2 b!2 b!2 s!0 a!4 r!1 r!1 p!5 p!5 p!5))))
 (let ((?x1403 (* 3 (* q!3 q!3 b!2 b!2 b!2 b!2 s!0 r!1 r!1 p!5))))
 (let ((?x1401 (* 2 (* b!2 b!2 b!2 s!0 s!0 a!4 r!1 p!5 p!5 p!5))))
 (let ((?x1427 (* (- 6) (* q!3 b!2 b!2 b!2 s!0 s!0 a!4 r!1 p!5 p!5))))
 (let ((?x1399 (* 6 (* q!3 b!2 b!2 b!2 b!2 s!0 s!0 r!1 p!5 p!5))))
 (let ((?x1343 (* (- 6) (* q!3 q!3 b!2 b!2 b!2 b!2 s!0 s!0 r!1 p!5))))
 (let ((?x1353 (* 6 (* q!3 q!3 b!2 b!2 b!2 s!0 s!0 a!4 r!1 p!5))))
 (let ((?x1463 (* (- 3) (* q!3 q!3 b!2 b!2 b!2 s!0 a!4 r!1 r!1 p!5))))
 (let ((?x1434 (* (- 1) (* q!3 q!3 q!3 b!2 b!2 b!2 b!2 s!0 r!1 r!1))))
 (let ((?x532 (* (- 3) (* q!3 q!3 b!2 b!2 b!2 s!0 s!0 s!0 a!4 p!5))))
 (let ((?x821 (* 3 (* q!3 q!3 b!2 b!2 b!2 b!2 s!0 s!0 s!0 p!5))))
 (let ((?x1069 (* (- 2) (* q!3 q!3 q!3 b!2 b!2 b!2 s!0 s!0 a!4 r!1))))
 (let ((?x588 (* 2 (* q!3 q!3 q!3 b!2 b!2 b!2 b!2 s!0 s!0 r!1))))
 (let ((?x576 (* (- 1) (* b!2 b!2 b!2 s!0 s!0 s!0 a!4 p!5 p!5 p!5))))
 (let ((?x1475 (* (- 3) (* q!3 b!2 b!2 b!2 b!2 s!0 r!1 r!1 p!5 p!5))))
 (let ((?x1426 (* (- 2) (* b!2 b!2 b!2 b!2 s!0 s!0 r!1 p!5 p!5 p!5))))
 (let ((?x1374 (* 3 (* q!3 b!2 b!2 b!2 s!0 s!0 s!0 a!4 p!5 p!5))))
 (let ((?x1500 (* (- 3) (* q!3 b!2 b!2 b!2 b!2 s!0 s!0 s!0 p!5 p!5))))
 (let ((?x959 (* 3 (* q!3 b!2 b!2 b!2 s!0 a!4 r!1 r!1 p!5 p!5))))
 (let ((?x885 (* (- 1) (* ?x1579 ?x1579 ?x991 ?x991 ?x991 ?x1597 ?x1597 ?x1597 s!0 b!2 q!3))))
 (let ((?x256 (* (- 1) (* q!3 q!3 q!3 b!2 b!2 b!2 b!2 s!0 s!0 s!0))))
 (let ((?x1322 (+ ?x256 (* ?x1579 ?x991 ?x991 ?x991 ?x1597 ?x1597 ?x1597 b!2) ?x885 ?x959 ?x1500 ?x1374 (* b!2 b!2 b!2 b!2 s!0 s!0 s!0 p!5 p!5 p!5) ?x1426 ?x1475 ?x576 ?x588 ?x1069 ?x821 ?x532 ?x1434 ?x1463 ?x1353 ?x1343 ?x1399 ?x1427 ?x1401 ?x1403 (* q!3 q!3 q!3 b!2 b!2 b!2 s!0 a!4 r!1 r!1) (* b!2 b!2 b!2 b!2 s!0 r!1 r!1 p!5 p!5 p!5) ?x1405 ?x313 (* q!3 q!3 q!3 b!2 b!2 b!2 s!0 s!0 s!0 a!4))))
 (let ((?x1538 (* ?x1322 ?x1531)))
 (let (($x1323 (= ?x1538 0)))
 (let ((?x1555 (* q!3 a!4 a!4 a!4 a!4 a!4 a!4 r!1 p!5 p!5 p!5)))
 (let ((?x1549 (* q!3 b!2 b!2 b!2 a!4 a!4 a!4 r!1 p!5 p!5 p!5)))
 (let ((?x1546 (* q!3 b!2 b!2 a!4 a!4 a!4 a!4 r!1 p!5 p!5 p!5)))
 (let ((?x1527 (* b!2 a!4 a!4 a!4 r!1 r!1 r!1 p!5 p!5 p!5 p!5)))
 (let ((?x1509 (* a!4 a!4 a!4 a!4 r!1 r!1 r!1 p!5 p!5 p!5 p!5)))
 (let ((?x1487 (* b!2 b!2 a!4 a!4 a!4 a!4 r!1 p!5 p!5 p!5 p!5)))
 (let ((?x1474 (* b!2 s!0 a!4 a!4 a!4 r!1 r!1 p!5 p!5 p!5 p!5)))
 (let ((?x1420 (* 3 (* b!2 a!4 a!4 a!4 r!1 r!1 r!1 p!5 p!5 p!5))))
 (let ((?x1400 (* (- 3) (* b!2 b!2 a!4 a!4 r!1 r!1 r!1 p!5 p!5 p!5))))
 (let ((?x1345 (* (- 1) (* a!4 a!4 a!4 a!4 r!1 r!1 r!1 p!5 p!5 p!5))))
 (let ((?x1421 (* q!3 s!0 a!4 a!4 a!4 a!4 r!1 r!1 p!5 p!5 p!5)))
 (let ((?x1415 (* q!3 b!2 a!4 a!4 a!4 a!4 a!4 r!1 p!5 p!5 p!5)))
 (let ((?x1412 (* q!3 b!2 a!4 a!4 a!4 r!1 r!1 r!1 p!5 p!5 p!5)))
 (let ((?x1408 (* b!2 b!2 b!2 a!4 a!4 a!4 r!1 p!5 p!5 p!5 p!5)))
 (let ((?x1327 (* q!3 a!4 a!4 a!4 a!4 r!1 r!1 r!1 p!5 p!5 p!5)))
 (let ((?x1317 (* s!0 a!4 a!4 a!4 a!4 r!1 r!1 p!5 p!5 p!5 p!5)))
 (let ((?x1485 (* 3 (* b!2 b!2 s!0 a!4 a!4 r!1 r!1 p!5 p!5 p!5))))
 (let ((?x1063 (* q!3 b!2 s!0 a!4 a!4 a!4 r!1 r!1 p!5 p!5 p!5)))
 (let ((?x987 (* b!2 a!4 a!4 a!4 a!4 a!4 r!1 p!5 p!5 p!5 p!5)))
 (let ((?x807 (* a!4 a!4 a!4 a!4 a!4 a!4 r!1 p!5 p!5 p!5 p!5)))
 (let ((?x153 (* (- 3) (* b!2 s!0 a!4 a!4 a!4 r!1 r!1 p!5 p!5 p!5))))
 (let ((?x200 (+ ?x153 (* b!2 a!4 a!4 a!4 r!1 p!5 p!5 p!5) (* (- 1) ?x807) (* 3 ?x987) (* (- 1) ?x1063) ?x1485 (* (- 1) (* a!4 a!4 a!4 a!4 r!1 p!5 p!5 p!5)) (* (- 1) ?x1317) (* (- 1) ?x1327) (* b!2 b!2 b!2 a!4 r!1 r!1 r!1 p!5 p!5 p!5) ?x1408 ?x1412 (* (- 3) ?x1415) ?x1421 ?x1345 ?x1400 ?x1420 ?x1474 ?x1405 (* (- 3) ?x1487) ?x1509 (* (- 1) ?x1527) (* s!0 a!4 a!4 a!4 a!4 r!1 r!1 p!5 p!5 p!5) (* 3 ?x1546) (* (- 1) ?x1549) ?x1555)))
 (let ((?x1450 (* ?x200 (+ ?x1506 ?x1514 ?x933 ?x1351 ?x1503 ?x1630))))
 (let (($x704 (= ?x1450 0)))
 (let (($x667 (not $x704)))
 (let (($x760 (or $x667 (not $x1323))))
 (let ((?x960 (* s00 a00 q!3)))
 (let ((?x943 (* p00 b00 s!0)))
 (let ((?x890 (* q00 r00 b!2)))
 (let ((?x545 (+ ?x890 (* (- 1) ?x929) ?x943 ?x960 (* (- 1) ?x980) (* (- 1) ?x1441))))
 (let (($x1489 (= ?x545 0)))
 (let ((?x141 (* q00 a00)))
 (let ((?x327 (+ ?x141 (* (- 1) (* p00 b00)) (* b!2 p!5) (* (- 1) (* q!3 a!4)))))
 (let ((?x600 (* b!2 r!1)))
 (let ((?x137 (* s00 a00)))
 (let (($x1110 (= (+ ?x137 (* (- 1) (* r00 b00)) ?x600 (* (- 1) (* s!0 a!4))) 0)))
 (let ((?x727 (* q!3 r!1)))
 (let ((?x41 (* q00 r00)))
 (let ((?x1223 (* (- 1) ?x41)))
 (let ((?x37 (* p00 s00)))
 (let (($x1535 (and (= (+ ?x37 ?x1223 ?x727 (* (- 1) (* s!0 p!5))) 0) $x1110 (= ?x327 0) $x1447 $x1489 $x760)))
 (let ((?x340 (* r!1 q00 a00)))
 (let ((?x127 (* (- 1) ?x340)))
 (let ((?x336 (* p!5 s00 a00)))
 (let ((?x1575 (* r!1 p00 b00)))
 (let ((?x1229 (* p!5 r00 b00)))
 (let ((?x126 (* (- 1) ?x1229)))
 (let ((?x1118 (* a!4 q00 r00)))
 (let ((?x1171 (* a!4 p00 s00)))
 (let ((?x151 (* (- 1) ?x1171)))
 (let ((?x1247 (* p!5 p!5 p!5 a!4 a!4 a!4 q!3 b!2 b!2 b!2 r!1)))
 (let ((?x439 (* p!5 p!5 p!5 a!4 a!4 a!4 a!4 q!3 b!2 b!2 r!1)))
 (let ((?x1232 (* p!5 p!5 p!5 a!4 a!4 a!4 a!4 a!4 q!3 b!2 r!1)))
 (let ((?x1257 (* p!5 p!5 p!5 a!4 a!4 a!4 a!4 a!4 a!4 q!3 r!1)))
 (let ((?x350 (* p!5 p!5 p!5 p!5 a!4 a!4 a!4 b!2 b!2 b!2 r!1)))
 (let ((?x1233 (* p!5 p!5 p!5 p!5 a!4 a!4 a!4 a!4 b!2 b!2 r!1)))
 (let ((?x344 (* p!5 p!5 p!5 p!5 a!4 a!4 a!4 a!4 a!4 b!2 r!1)))
 (let ((?x301 (* p!5 p!5 p!5 p!5 a!4 a!4 a!4 a!4 a!4 a!4 r!1)))
 (let ((?x168 (* 3 (* p!5 p!5 p!5 a!4 a!4 b!2 b!2 r!1 r!1 s!0))))
 (let ((?x166 (* (- 3) (* p!5 p!5 p!5 a!4 a!4 a!4 b!2 r!1 r!1 s!0))))
 (let ((?x189 (* p!5 p!5 p!5 a!4 a!4 a!4 q!3 b!2 r!1 r!1 s!0)))
 (let ((?x555 (* p!5 p!5 p!5 a!4 a!4 a!4 a!4 q!3 r!1 r!1 s!0)))
 (let ((?x184 (* (- 1) (* p!5 p!5 p!5 a!4 a!4 a!4 a!4 r!1 r!1 r!1))))
 (let ((?x182 (* 3 (* p!5 p!5 p!5 a!4 a!4 a!4 b!2 r!1 r!1 r!1))))
 (let ((?x180 (* (- 3) (* p!5 p!5 p!5 a!4 a!4 b!2 b!2 r!1 r!1 r!1))))
 (let ((?x1173 (* (- 1) (* p!5 p!5 p!5 a!4 b!2 b!2 b!2 r!1 r!1 s!0))))
 (let ((?x174 (* p!5 p!5 p!5 p!5 a!4 a!4 a!4 b!2 r!1 r!1 s!0)))
 (let ((?x178 (* p!5 p!5 p!5 p!5 a!4 a!4 a!4 a!4 r!1 r!1 s!0)))
 (let ((?x176 (* p!5 p!5 p!5 a!4 a!4 a!4 q!3 b!2 r!1 r!1 r!1)))
 (let ((?x169 (* p!5 p!5 p!5 a!4 a!4 a!4 a!4 q!3 r!1 r!1 r!1)))
 (let ((?x163 (* p!5 p!5 p!5 p!5 a!4 a!4 a!4 b!2 r!1 r!1 r!1)))
 (let ((?x156 (* p!5 p!5 p!5 p!5 a!4 a!4 a!4 a!4 r!1 r!1 r!1)))
 (let ((?x1221 (+ ?x156 (* (- 1) ?x163) (* (- 1) ?x169) ?x176 (* (- 1) ?x178) ?x174 ?x1173 (* (- 1) (* p!5 p!5 p!5 a!4 a!4 a!4 a!4 r!1)) ?x180 ?x182 ?x184 ?x555 (* (- 1) ?x189) (* p!5 p!5 p!5 a!4 a!4 a!4 b!2 r!1) (* p!5 p!5 p!5 a!4 b!2 b!2 b!2 r!1 r!1 r!1) (* p!5 p!5 p!5 a!4 a!4 a!4 a!4 r!1 r!1 s!0) ?x166 ?x168 (* (- 1) ?x301) (* 3 ?x344) (* (- 3) ?x1233) ?x350 ?x1257 (* (- 3) ?x1232) (* 3 ?x439) (* (- 1) ?x1247))))
 (let ((?x421 (* s!0 q00 a00)))
 (let ((?x1198 (* q!3 r00 b00)))
 (let ((?x1220 (* b!2 p00 s00)))
 (let ((?x157 (+ ?x151 ?x1118 (* (- 1) (* b!2 q00 r00)) ?x1220 ?x126 ?x1575 ?x336 ?x127 (* (- 1) (* s!0 p00 b00)) ?x1198 (* (- 1) (* q!3 s00 a00)) ?x421)))
 (let ((?x342 (+ p!5 ?x341)))
 (let ((?x338 (+ a!4 ?x337)))
 (let ((?x238 (+ r!1 ?x1058)))
 (let ((?x258 (* (- 1) (* ?x238 ?x238 ?x338 ?x338 ?x338 ?x342 ?x342 ?x342 s!0 b!2 q!3))))
 (let ((?x248 (* 3 (* p!5 q!3 q!3 b!2 b!2 b!2 b!2 s!0 s!0 s!0))))
 (let ((?x247 (* (- 3) (* p!5 a!4 q!3 q!3 b!2 b!2 b!2 s!0 s!0 s!0))))
 (let ((?x323 (* (- 3) (* p!5 p!5 q!3 b!2 b!2 b!2 b!2 s!0 s!0 s!0))))
 (let ((?x1083 (* 3 (* p!5 p!5 a!4 q!3 b!2 b!2 b!2 s!0 s!0 s!0))))
 (let ((?x226 (* (- 1) (* p!5 p!5 p!5 a!4 b!2 b!2 b!2 s!0 s!0 s!0))))
 (let ((?x414 (* 2 (* q!3 q!3 q!3 b!2 b!2 b!2 b!2 r!1 s!0 s!0))))
 (let ((?x402 (* (- 2) (* a!4 q!3 q!3 q!3 b!2 b!2 b!2 r!1 s!0 s!0))))
 (let ((?x161 (* (- 6) (* p!5 q!3 q!3 b!2 b!2 b!2 b!2 r!1 s!0 s!0))))
 (let ((?x139 (* 6 (* p!5 a!4 q!3 q!3 b!2 b!2 b!2 r!1 s!0 s!0))))
 (let ((?x136 (* 6 (* p!5 p!5 q!3 b!2 b!2 b!2 b!2 r!1 s!0 s!0))))
 (let ((?x396 (* (- 6) (* p!5 p!5 a!4 q!3 b!2 b!2 b!2 r!1 s!0 s!0))))
 (let ((?x1238 (* (- 2) (* p!5 p!5 p!5 b!2 b!2 b!2 b!2 r!1 s!0 s!0))))
 (let ((?x1163 (* 2 (* p!5 p!5 p!5 a!4 b!2 b!2 b!2 r!1 s!0 s!0))))
 (let ((?x1166 (* (- 1) (* q!3 q!3 q!3 b!2 b!2 b!2 b!2 r!1 r!1 s!0))))
 (let ((?x1172 (* 3 (* p!5 q!3 q!3 b!2 b!2 b!2 b!2 r!1 r!1 s!0))))
 (let ((?x1117 (* (- 3) (* p!5 a!4 q!3 q!3 b!2 b!2 b!2 r!1 r!1 s!0))))
 (let ((?x431 (* (- 3) (* p!5 p!5 q!3 b!2 b!2 b!2 b!2 r!1 r!1 s!0))))
 (let ((?x415 (* (- 1) (* ?x238 ?x338 ?x338 ?x338 ?x342 ?x342 ?x342 b!2 b!2 b!2 q!3))))
 (let ((?x562 (* 3 (* p!5 p!5 a!4 q!3 b!2 b!2 b!2 r!1 r!1 s!0))))
 (let ((?x289 (+ ?x562 ?x415 ?x431 ?x1173 (* p!5 p!5 p!5 b!2 b!2 b!2 b!2 r!1 r!1 s!0) ?x1117 ?x1172 (* a!4 q!3 q!3 q!3 b!2 b!2 b!2 r!1 r!1 s!0) ?x1166 ?x1163 ?x1238 ?x396 ?x136 ?x139 ?x161 ?x402 ?x414 ?x226 (* p!5 p!5 p!5 b!2 b!2 b!2 b!2 s!0 s!0 s!0) ?x1083 ?x323 ?x247 ?x248 (* a!4 q!3 q!3 q!3 b!2 b!2 b!2 s!0 s!0 s!0) ?x256 ?x258 (* ?x238 ?x338 ?x338 ?x338 ?x342 ?x342 ?x342 b!2))))
 (let (($x1199 (or (not (= (* ?x289 ?x157) 0)) (not (= (* ?x1221 (+ ?x151 ?x1118 ?x126 ?x1575 ?x336 ?x127)) 0)))))
 (let ((?x436 (* q!3 s00 a00)))
 (let ((?x1241 (* s!0 p00 b00)))
 (let ((?x884 (* b!2 q00 r00)))
 (let (($x967 (= (+ ?x884 (* (- 1) ?x1220) ?x1241 (* (- 1) ?x1198) ?x436 (* (- 1) ?x421)) 0)))
 (let (($x472 (= (+ ?x1171 (* (- 1) ?x1118) ?x1229 (* (- 1) ?x1575) (* (- 1) ?x336) ?x340) 0)))
 (let ((?x142 (* p00 b00)))
 (let ((?x185 (* (- 1) ?x141)))
 (let (($x742 (= (+ (* a!4 s!0) (* (- 1) ?x600) (* (- 1) ?x137) (* r00 b00)) 0)))
 (let (($x314 (and (= (+ (* p!5 s!0) (* (- 1) ?x37) ?x41 (* (- 1) ?x727)) 0) $x742 (= (+ (* a!4 q!3) ?x185 ?x142 (* (- 1) (* p!5 b!2))) 0) $x472 $x967 $x1199)))
 (let (($x627 (exists ((p Int) (a Int) (q Int) (b Int) (r Int) (s Int) )(! (let ((?x230 (* r q00 a00)))
 (let ((?x236 (* (- 1) ?x230)))
 (let ((?x219 (* p s00 a00)))
 (let ((?x216 (* r p00 b00)))
 (let ((?x196 (* p r00 b00)))
 (let ((?x197 (* (- 1) ?x196)))
 (let ((?x66 (* a q00 r00)))
 (let ((?x63 (* a p00 s00)))
 (let ((?x205 (* (- 1) ?x63)))
 (let ((?x242 (+ ?x205 ?x66 ?x197 ?x216 ?x219 ?x236)))
 (let ((?x1577 (* (- 1) (* p p p a a a q b b b r))))
 (let ((?x1594 (* 3 (* p p p a a a a q b b r))))
 (let ((?x1591 (* (- 3) (* p p p a a a a a q b r))))
 (let ((?x1584 (* (- 3) (* p p p p a a a a b b r))))
 (let ((?x1581 (* 3 (* p p p p a a a a a b r))))
 (let ((?x1570 (* (- 1) (* p p p p a a a a a a r))))
 (let ((?x389 (* (- 1) (* p p p a a a q b r r s))))
 (let ((?x1094 (* (- 1) (* p p p a b b b r r s))))
 (let ((?x409 (* (- 1) (* p p p p a a a a r r s))))
 (let ((?x432 (* (- 1) (* p p p a a a a q r r r))))
 (let ((?x429 (* (- 1) (* p p p p a a a b r r r))))
 (let ((?x1590 (+ (* p p p p a a a a r r r) ?x429 ?x432 (* p p p a a a q b r r r) ?x409 (* p p p p a a a b r r s) ?x1094 (* (- 1) (* p p p a a a a r)) (* (- 3) (* p p p a a b b r r r)) (* 3 (* p p p a a a b r r r)) (* (- 1) (* p p p a a a a r r r)) (* p p p a a a a q r r s) ?x389 (* p p p a a a b r) (* p p p a b b b r r r) (* p p p a a a a r r s) (* (- 3) (* p p p a a a b r r s)) (* 3 (* p p p a a b b r r s)) ?x1570 ?x1581 ?x1584 (* p p p p a a a b b b r) (* p p p a a a a a a q r) ?x1591 ?x1594 ?x1577)))
 (let ((?x305 (* s q00 a00)))
 (let ((?x294 (* q s00 a00)))
 (let ((?x398 (* (- 1) ?x294)))
 (let ((?x260 (* q r00 b00)))
 (let ((?x259 (* s p00 b00)))
 (let ((?x363 (* (- 1) ?x259)))
 (let ((?x76 (* b p00 s00)))
 (let ((?x72 (* b q00 r00)))
 (let ((?x378 (* (- 1) ?x72)))
 (let ((?x263 (* (- 1) q)))
 (let ((?x265 (+ p ?x263)))
 (let ((?x286 (+ a (* (- 1) b))))
 (let ((?x346 (+ r (* (- 1) s))))
 (let ((?x1598 (* ?x346 ?x286 ?x286 ?x286 ?x265 ?x265 ?x265 b)))
 (let ((?x361 (* (- 1) (* ?x346 ?x346 ?x286 ?x286 ?x286 ?x265 ?x265 ?x265 s b q))))
 (let ((?x1115 (* (- 1) (* q q q b b b b s s s))))
 (let ((?x1037 (* a q q q b b b s s s)))
 (let ((?x1170 (* 3 (* p q q b b b b s s s))))
 (let ((?x1167 (* (- 3) (* p a q q b b b s s s))))
 (let ((?x1164 (* (- 3) (* p p q b b b b s s s))))
 (let ((?x1161 (* 3 (* p p a q b b b s s s))))
 (let ((?x931 (* p p p b b b b s s s)))
 (let ((?x1108 (* (- 1) (* p p p a b b b s s s))))
 (let ((?x1156 (* 2 (* q q q b b b b r s s))))
 (let ((?x1153 (* (- 2) (* a q q q b b b r s s))))
 (let ((?x1150 (* (- 6) (* p q q b b b b r s s))))
 (let ((?x1147 (* 6 (* p a q q b b b r s s))))
 (let ((?x1144 (* 6 (* p p q b b b b r s s))))
 (let ((?x1141 (* (- 6) (* p p a q b b b r s s))))
 (let ((?x1138 (* (- 2) (* p p p b b b b r s s))))
 (let ((?x1135 (* 2 (* p p p a b b b r s s))))
 (let ((?x1099 (* (- 1) (* q q q b b b b r r s))))
 (let ((?x653 (* a q q q b b b r r s)))
 (let ((?x1130 (* 3 (* p q q b b b b r r s))))
 (let ((?x1127 (* (- 3) (* p a q q b b b r r s))))
 (let ((?x561 (* p p p b b b b r r s)))
 (let ((?x1122 (* (- 3) (* p p q b b b b r r s))))
 (let ((?x1534 (* (- 1) (* ?x346 ?x286 ?x286 ?x286 ?x265 ?x265 ?x265 b b b q))))
 (let ((?x1119 (* 3 (* p p a q b b b r r s))))
 (let ((?x1034 (+ ?x1119 ?x1534 ?x1122 ?x1094 ?x561 ?x1127 ?x1130 ?x653 ?x1099 ?x1135 ?x1138 ?x1141 ?x1144 ?x1147 ?x1150 ?x1153 ?x1156 ?x1108 ?x931 ?x1161 ?x1164 ?x1167 ?x1170 ?x1037 ?x1115 ?x361 ?x1598)))
 (let ((?x1190 (* ?x1034 (+ ?x205 ?x66 ?x378 ?x76 ?x197 ?x216 ?x219 ?x236 ?x363 ?x260 ?x398 ?x305))))
 (let (($x322 (= (+ ?x72 (* (- 1) ?x76) ?x259 (* (- 1) ?x260) ?x294 (* (- 1) ?x305)) 0)))
 (let (($x254 (= (+ ?x63 (* (- 1) ?x66) ?x196 (* (- 1) ?x216) (* (- 1) ?x219) ?x230) 0)))
 (let ((?x142 (* p00 b00)))
 (let ((?x141 (* q00 a00)))
 (let ((?x185 (* (- 1) ?x141)))
 (let (($x188 (= (+ (* a q) ?x185 ?x142 (* (- 1) (* p b))) 0)))
 (let ((?x155 (* r00 b00)))
 (let ((?x137 (* s00 a00)))
 (let ((?x144 (* (- 1) ?x137)))
 (let ((?x49 (* a s)))
 (let (($x170 (= (+ ?x49 (* (- 1) (* b r)) ?x144 ?x155) 0)))
 (let ((?x41 (* q00 r00)))
 (let ((?x37 (* p00 s00)))
 (let ((?x146 (* (- 1) ?x37)))
 (let ((?x33 (* p s)))
 (let (($x165 (= (+ ?x33 ?x146 ?x41 (* (- 1) (* q r))) 0)))
 (and $x165 $x170 $x188 $x254 $x322 (or (not (= ?x1190 0)) (not (= (* ?x1590 ?x242) 0))))))))))))))))))))))))))))))))))))))))))))))))))))))))))))))))))))))))))))))))))) :qid k!39))
 ))
 (let (($x348 (exists ((p Int) (a Int) (q Int) (b Int) (r Int) (s Int) )(! (let ((?x383 (* a00 s00 p)))
 (let ((?x438 (* q00 r00 a)))
 (let ((?x65 (* b00 p00 r)))
 (let ((?x401 (+ (* (- 1) (* b00 r00 p)) (* (- 1) (* p00 s00 a)) ?x65 ?x438 ?x383 (* (- 1) (* a00 q00 r)))))
 (let ((?x595 (+ q (* (- 1) p))))
 (let ((?x1329 (+ b (* (- 1) a))))
 (let ((?x790 (* (- 1) (* ?x1329 ?x1329 ?x1329 ?x595 r a a a p p p))))
 (let ((?x1454 (+ s (* (- 1) r))))
 (let ((?x874 (* (- 1) (* ?x1454 ?x1329 ?x595 r r a a a p p p))))
 (let ((?x347 (+ (* ?x1329 r a a a p p p) ?x874 (* (- 1) (* ?x1454 ?x1329 ?x1329 ?x1329 r r a p p p)) ?x790)))
 (let ((?x1574 (+ (* (- 1) (* b00 r00 (+ p (* (- 1) q)))) (* (- 1) (* p00 s00 (+ a (* (- 1) b)))) (* b00 p00 (+ r (* (- 1) s))) (* q00 r00 (+ a (* (- 1) b))) (* a00 s00 (+ p (* (- 1) q))) (* (- 1) (* a00 q00 (+ r (* (- 1) s)))))))
 (let ((?x263 (* (- 1) q)))
 (let ((?x265 (+ p ?x263)))
 (let ((?x286 (+ a (* (- 1) b))))
 (let ((?x346 (+ r (* (- 1) s))))
 (let ((?x1534 (* (- 1) (* ?x346 ?x286 ?x286 ?x286 ?x265 ?x265 ?x265 b b b q))))
 (let ((?x361 (* (- 1) (* ?x346 ?x346 ?x286 ?x286 ?x286 ?x265 ?x265 ?x265 s b q))))
 (let ((?x1598 (* ?x346 ?x286 ?x286 ?x286 ?x265 ?x265 ?x265 b)))
 (let ((?x1177 (+ ?x1598 ?x361 (* (- 1) (* ?x346 ?x346 ?x286 ?x265 ?x265 ?x265 s b b b)) ?x1534)))
 (let (($x566 (or (not (= (* ?x1177 ?x1574) 0)) (not (= (* ?x347 ?x401) 0)))))
 (let ((?x73 (* b00 p00 s)))
 (let ((?x326 (+ (* q00 r00 b) ?x73 (* (- 1) (* b00 r00 q)) (* (- 1) (* p00 s00 b)) (* a00 s00 q) (* (- 1) (* a00 q00 s)))))
 (let (($x217 (= ?x326 0)))
 (let ((?x69 (* a00 q00 r)))
 (let ((?x365 (* p00 s00 a)))
 (let ((?x896 (* b00 r00 p)))
 (let (($x1580 (= (+ ?x896 ?x365 (* (- 1) ?x65) (* (- 1) ?x438) (* (- 1) ?x383) ?x69) 0)))
 (let ((?x57 (* b00 p00)))
 (let ((?x938 (* q a)))
 (let (($x1286 (= (+ ?x938 (* (- 1) (* a00 q00)) ?x57 (* (- 1) (* b p))) 0)))
 (let ((?x47 (* a00 s00)))
 (let ((?x659 (* r b)))
 (let (($x946 (= (+ ?x659 ?x47 (* (- 1) (* s a)) (* (- 1) (* b00 r00))) 0)))
 (let ((?x41 (* q00 r00)))
 (let ((?x1223 (* (- 1) ?x41)))
 (let ((?x37 (* p00 s00)))
 (let ((?x423 (* r q)))
 (and (= (+ ?x423 (* (- 1) (* s p)) ?x37 ?x1223) 0) $x946 $x1286 $x1580 $x217 $x566)))))))))))))))))))))))))))))))))))))) :qid k!39))
 ))
 (let ((?x1277 (lambda ((p Int) (a Int) (q Int) (b Int) (r Int) (s Int) )(let ((?x230 (* r q00 a00)))
 (let ((?x236 (* (- 1) ?x230)))
 (let ((?x219 (* p s00 a00)))
 (let ((?x216 (* r p00 b00)))
 (let ((?x196 (* p r00 b00)))
 (let ((?x197 (* (- 1) ?x196)))
 (let ((?x66 (* a q00 r00)))
 (let ((?x63 (* a p00 s00)))
 (let ((?x205 (* (- 1) ?x63)))
 (let ((?x242 (+ ?x205 ?x66 ?x197 ?x216 ?x219 ?x236)))
 (let ((?x1577 (* (- 1) (* p p p a a a q b b b r))))
 (let ((?x1594 (* 3 (* p p p a a a a q b b r))))
 (let ((?x1591 (* (- 3) (* p p p a a a a a q b r))))
 (let ((?x1584 (* (- 3) (* p p p p a a a a b b r))))
 (let ((?x1581 (* 3 (* p p p p a a a a a b r))))
 (let ((?x1570 (* (- 1) (* p p p p a a a a a a r))))
 (let ((?x389 (* (- 1) (* p p p a a a q b r r s))))
 (let ((?x1094 (* (- 1) (* p p p a b b b r r s))))
 (let ((?x409 (* (- 1) (* p p p p a a a a r r s))))
 (let ((?x432 (* (- 1) (* p p p a a a a q r r r))))
 (let ((?x429 (* (- 1) (* p p p p a a a b r r r))))
 (let ((?x1590 (+ (* p p p p a a a a r r r) ?x429 ?x432 (* p p p a a a q b r r r) ?x409 (* p p p p a a a b r r s) ?x1094 (* (- 1) (* p p p a a a a r)) (* (- 3) (* p p p a a b b r r r)) (* 3 (* p p p a a a b r r r)) (* (- 1) (* p p p a a a a r r r)) (* p p p a a a a q r r s) ?x389 (* p p p a a a b r) (* p p p a b b b r r r) (* p p p a a a a r r s) (* (- 3) (* p p p a a a b r r s)) (* 3 (* p p p a a b b r r s)) ?x1570 ?x1581 ?x1584 (* p p p p a a a b b b r) (* p p p a a a a a a q r) ?x1591 ?x1594 ?x1577)))
 (let ((?x305 (* s q00 a00)))
 (let ((?x294 (* q s00 a00)))
 (let ((?x398 (* (- 1) ?x294)))
 (let ((?x260 (* q r00 b00)))
 (let ((?x259 (* s p00 b00)))
 (let ((?x363 (* (- 1) ?x259)))
 (let ((?x76 (* b p00 s00)))
 (let ((?x72 (* b q00 r00)))
 (let ((?x378 (* (- 1) ?x72)))
 (let ((?x263 (* (- 1) q)))
 (let ((?x265 (+ p ?x263)))
 (let ((?x286 (+ a (* (- 1) b))))
 (let ((?x346 (+ r (* (- 1) s))))
 (let ((?x1598 (* ?x346 ?x286 ?x286 ?x286 ?x265 ?x265 ?x265 b)))
 (let ((?x361 (* (- 1) (* ?x346 ?x346 ?x286 ?x286 ?x286 ?x265 ?x265 ?x265 s b q))))
 (let ((?x1115 (* (- 1) (* q q q b b b b s s s))))
 (let ((?x1037 (* a q q q b b b s s s)))
 (let ((?x1170 (* 3 (* p q q b b b b s s s))))
 (let ((?x1167 (* (- 3) (* p a q q b b b s s s))))
 (let ((?x1164 (* (- 3) (* p p q b b b b s s s))))
 (let ((?x1161 (* 3 (* p p a q b b b s s s))))
 (let ((?x931 (* p p p b b b b s s s)))
 (let ((?x1108 (* (- 1) (* p p p a b b b s s s))))
 (let ((?x1156 (* 2 (* q q q b b b b r s s))))
 (let ((?x1153 (* (- 2) (* a q q q b b b r s s))))
 (let ((?x1150 (* (- 6) (* p q q b b b b r s s))))
 (let ((?x1147 (* 6 (* p a q q b b b r s s))))
 (let ((?x1144 (* 6 (* p p q b b b b r s s))))
 (let ((?x1141 (* (- 6) (* p p a q b b b r s s))))
 (let ((?x1138 (* (- 2) (* p p p b b b b r s s))))
 (let ((?x1135 (* 2 (* p p p a b b b r s s))))
 (let ((?x1099 (* (- 1) (* q q q b b b b r r s))))
 (let ((?x653 (* a q q q b b b r r s)))
 (let ((?x1130 (* 3 (* p q q b b b b r r s))))
 (let ((?x1127 (* (- 3) (* p a q q b b b r r s))))
 (let ((?x561 (* p p p b b b b r r s)))
 (let ((?x1122 (* (- 3) (* p p q b b b b r r s))))
 (let ((?x1534 (* (- 1) (* ?x346 ?x286 ?x286 ?x286 ?x265 ?x265 ?x265 b b b q))))
 (let ((?x1119 (* 3 (* p p a q b b b r r s))))
 (let ((?x1034 (+ ?x1119 ?x1534 ?x1122 ?x1094 ?x561 ?x1127 ?x1130 ?x653 ?x1099 ?x1135 ?x1138 ?x1141 ?x1144 ?x1147 ?x1150 ?x1153 ?x1156 ?x1108 ?x931 ?x1161 ?x1164 ?x1167 ?x1170 ?x1037 ?x1115 ?x361 ?x1598)))
 (let ((?x1190 (* ?x1034 (+ ?x205 ?x66 ?x378 ?x76 ?x197 ?x216 ?x219 ?x236 ?x363 ?x260 ?x398 ?x305))))
 (let (($x322 (= (+ ?x72 (* (- 1) ?x76) ?x259 (* (- 1) ?x260) ?x294 (* (- 1) ?x305)) 0)))
 (let (($x254 (= (+ ?x63 (* (- 1) ?x66) ?x196 (* (- 1) ?x216) (* (- 1) ?x219) ?x230) 0)))
 (let ((?x142 (* p00 b00)))
 (let ((?x141 (* q00 a00)))
 (let ((?x185 (* (- 1) ?x141)))
 (let (($x188 (= (+ (* a q) ?x185 ?x142 (* (- 1) (* p b))) 0)))
 (let ((?x155 (* r00 b00)))
 (let ((?x137 (* s00 a00)))
 (let ((?x144 (* (- 1) ?x137)))
 (let ((?x49 (* a s)))
 (let (($x170 (= (+ ?x49 (* (- 1) (* b r)) ?x144 ?x155) 0)))
 (let ((?x41 (* q00 r00)))
 (let ((?x37 (* p00 s00)))
 (let ((?x146 (* (- 1) ?x37)))
 (let ((?x33 (* p s)))
 (let (($x165 (= (+ ?x33 ?x146 ?x41 (* (- 1) (* q r))) 0)))
 (let (($x984 (and $x165 $x170 $x188 $x254 $x322 (or (not (= ?x1190 0)) (not (= (* ?x1590 ?x242) 0))))))
 (let ((?x383 (* a00 s00 p)))
 (let ((?x438 (* q00 r00 a)))
 (let ((?x65 (* b00 p00 r)))
 (let ((?x401 (+ (* (- 1) (* b00 r00 p)) (* (- 1) (* p00 s00 a)) ?x65 ?x438 ?x383 (* (- 1) (* a00 q00 r)))))
 (let ((?x595 (+ q (* (- 1) p))))
 (let ((?x1329 (+ b (* (- 1) a))))
 (let ((?x790 (* (- 1) (* ?x1329 ?x1329 ?x1329 ?x595 r a a a p p p))))
 (let ((?x1454 (+ s (* (- 1) r))))
 (let ((?x874 (* (- 1) (* ?x1454 ?x1329 ?x595 r r a a a p p p))))
 (let ((?x347 (+ (* ?x1329 r a a a p p p) ?x874 (* (- 1) (* ?x1454 ?x1329 ?x1329 ?x1329 r r a p p p)) ?x790)))
 (let ((?x1574 (+ (* (- 1) (* b00 r00 ?x265)) (* (- 1) (* p00 s00 ?x286)) (* b00 p00 ?x346) (* q00 r00 ?x286) (* a00 s00 ?x265) (* (- 1) (* a00 q00 ?x346)))))
 (let ((?x1177 (+ ?x1598 ?x361 (* (- 1) (* ?x346 ?x346 ?x286 ?x265 ?x265 ?x265 s b b b)) ?x1534)))
 (let (($x566 (or (not (= (* ?x1177 ?x1574) 0)) (not (= (* ?x347 ?x401) 0)))))
 (let ((?x73 (* b00 p00 s)))
 (let ((?x326 (+ (* q00 r00 b) ?x73 (* (- 1) (* b00 r00 q)) (* (- 1) (* p00 s00 b)) (* a00 s00 q) (* (- 1) (* a00 q00 s)))))
 (let (($x217 (= ?x326 0)))
 (let ((?x69 (* a00 q00 r)))
 (let ((?x365 (* p00 s00 a)))
 (let ((?x896 (* b00 r00 p)))
 (let (($x1580 (= (+ ?x896 ?x365 (* (- 1) ?x65) (* (- 1) ?x438) (* (- 1) ?x383) ?x69) 0)))
 (let ((?x57 (* b00 p00)))
 (let ((?x938 (* q a)))
 (let (($x1286 (= (+ ?x938 (* (- 1) (* a00 q00)) ?x57 (* (- 1) (* b p))) 0)))
 (let ((?x47 (* a00 s00)))
 (let ((?x659 (* r b)))
 (let (($x946 (= (+ ?x659 ?x47 (* (- 1) (* s a)) (* (- 1) (* b00 r00))) 0)))
 (let (($x1439 (= (+ (* r q) (* (- 1) (* s p)) ?x37 (* (- 1) ?x41)) 0)))
 (let (($x573 (and $x1439 $x946 $x1286 $x1580 $x217 $x566)))
 (rewrite (= $x573 $x984)))))))))))))))))))))))))))))))))))))))))))))))))))))))))))))))))))))))))))))))))))))))))))))))))))))))))))))))
 ))
 (let (($x526 (exists ((p Int) (a Int) (q Int) (b Int) (r Int) (s Int) )(! (let ((?x383 (* a00 s00 p)))
 (let ((?x438 (* q00 r00 a)))
 (let ((?x65 (* b00 p00 r)))
 (let ((?x401 (+ (* (- 1) (* b00 r00 p)) (* (- 1) (* p00 s00 a)) ?x65 ?x438 ?x383 (* (- 1) (* a00 q00 r)))))
 (let ((?x595 (+ q (* (- 1) p))))
 (let ((?x1329 (+ b (* (- 1) a))))
 (let ((?x790 (* (- 1) (* ?x1329 ?x1329 ?x1329 ?x595 r a a a p p p))))
 (let ((?x1454 (+ s (* (- 1) r))))
 (let ((?x874 (* (- 1) (* ?x1454 ?x1329 ?x595 r r a a a p p p))))
 (let ((?x347 (+ (* ?x1329 r a a a p p p) ?x874 (* (- 1) (* ?x1454 ?x1329 ?x1329 ?x1329 r r a p p p)) ?x790)))
 (let ((?x1574 (+ (* (- 1) (* b00 r00 (+ p (* (- 1) q)))) (* (- 1) (* p00 s00 (+ a (* (- 1) b)))) (* b00 p00 (+ r (* (- 1) s))) (* q00 r00 (+ a (* (- 1) b))) (* a00 s00 (+ p (* (- 1) q))) (* (- 1) (* a00 q00 (+ r (* (- 1) s)))))))
 (let ((?x263 (* (- 1) q)))
 (let ((?x265 (+ p ?x263)))
 (let ((?x286 (+ a (* (- 1) b))))
 (let ((?x346 (+ r (* (- 1) s))))
 (let ((?x1534 (* (- 1) (* ?x346 ?x286 ?x286 ?x286 ?x265 ?x265 ?x265 b b b q))))
 (let ((?x361 (* (- 1) (* ?x346 ?x346 ?x286 ?x286 ?x286 ?x265 ?x265 ?x265 s b q))))
 (let ((?x1598 (* ?x346 ?x286 ?x286 ?x286 ?x265 ?x265 ?x265 b)))
 (let ((?x1177 (+ ?x1598 ?x361 (* (- 1) (* ?x346 ?x346 ?x286 ?x265 ?x265 ?x265 s b b b)) ?x1534)))
 (let (($x566 (or (not (= (* ?x1177 ?x1574) 0)) (not (= (* ?x347 ?x401) 0)))))
 (let ((?x73 (* b00 p00 s)))
 (let ((?x326 (+ (* q00 r00 b) ?x73 (* (- 1) (* b00 r00 q)) (* (- 1) (* p00 s00 b)) (* a00 s00 q) (* (- 1) (* a00 q00 s)))))
 (let (($x217 (= ?x326 0)))
 (let ((?x59 (* b p)))
 (let ((?x55 (* a00 q00)))
 (let (($x1245 (= (+ (* (- 1) (* q a)) ?x55 (* (- 1) (* b00 p00)) ?x59) 0)))
 (let ((?x51 (* b00 r00)))
 (let ((?x392 (* s a)))
 (let (($x1243 (= (+ (* (- 1) (* r b)) (* (- 1) (* a00 s00)) ?x392 ?x51) 0)))
 (let ((?x41 (* q00 r00)))
 (let ((?x37 (* p00 s00)))
 (let ((?x146 (* (- 1) ?x37)))
 (let ((?x947 (* s p)))
 (and (= (+ (* (- 1) (* r q)) ?x947 ?x146 ?x41) 0) $x1243 $x1245 (= ?x401 0) $x217 $x566)))))))))))))))))))))))))))))))))) :qid k!39))
 ))
 (let ((?x542 (lambda ((p Int) (a Int) (q Int) (b Int) (r Int) (s Int) )(let ((?x383 (* a00 s00 p)))
 (let ((?x438 (* q00 r00 a)))
 (let ((?x65 (* b00 p00 r)))
 (let ((?x401 (+ (* (- 1) (* b00 r00 p)) (* (- 1) (* p00 s00 a)) ?x65 ?x438 ?x383 (* (- 1) (* a00 q00 r)))))
 (let ((?x595 (+ q (* (- 1) p))))
 (let ((?x1329 (+ b (* (- 1) a))))
 (let ((?x790 (* (- 1) (* ?x1329 ?x1329 ?x1329 ?x595 r a a a p p p))))
 (let ((?x1454 (+ s (* (- 1) r))))
 (let ((?x874 (* (- 1) (* ?x1454 ?x1329 ?x595 r r a a a p p p))))
 (let ((?x347 (+ (* ?x1329 r a a a p p p) ?x874 (* (- 1) (* ?x1454 ?x1329 ?x1329 ?x1329 r r a p p p)) ?x790)))
 (let ((?x1574 (+ (* (- 1) (* b00 r00 (+ p (* (- 1) q)))) (* (- 1) (* p00 s00 (+ a (* (- 1) b)))) (* b00 p00 (+ r (* (- 1) s))) (* q00 r00 (+ a (* (- 1) b))) (* a00 s00 (+ p (* (- 1) q))) (* (- 1) (* a00 q00 (+ r (* (- 1) s)))))))
 (let ((?x263 (* (- 1) q)))
 (let ((?x265 (+ p ?x263)))
 (let ((?x286 (+ a (* (- 1) b))))
 (let ((?x346 (+ r (* (- 1) s))))
 (let ((?x1534 (* (- 1) (* ?x346 ?x286 ?x286 ?x286 ?x265 ?x265 ?x265 b b b q))))
 (let ((?x361 (* (- 1) (* ?x346 ?x346 ?x286 ?x286 ?x286 ?x265 ?x265 ?x265 s b q))))
 (let ((?x1598 (* ?x346 ?x286 ?x286 ?x286 ?x265 ?x265 ?x265 b)))
 (let ((?x1177 (+ ?x1598 ?x361 (* (- 1) (* ?x346 ?x346 ?x286 ?x265 ?x265 ?x265 s b b b)) ?x1534)))
 (let (($x566 (or (not (= (* ?x1177 ?x1574) 0)) (not (= (* ?x347 ?x401) 0)))))
 (let ((?x73 (* b00 p00 s)))
 (let ((?x326 (+ (* q00 r00 b) ?x73 (* (- 1) (* b00 r00 q)) (* (- 1) (* p00 s00 b)) (* a00 s00 q) (* (- 1) (* a00 q00 s)))))
 (let (($x217 (= ?x326 0)))
 (let ((?x69 (* a00 q00 r)))
 (let ((?x365 (* p00 s00 a)))
 (let ((?x896 (* b00 r00 p)))
 (let (($x1580 (= (+ ?x896 ?x365 (* (- 1) ?x65) (* (- 1) ?x438) (* (- 1) ?x383) ?x69) 0)))
 (let ((?x57 (* b00 p00)))
 (let ((?x938 (* q a)))
 (let (($x1286 (= (+ ?x938 (* (- 1) (* a00 q00)) ?x57 (* (- 1) (* b p))) 0)))
 (let ((?x47 (* a00 s00)))
 (let ((?x659 (* r b)))
 (let (($x946 (= (+ ?x659 ?x47 (* (- 1) (* s a)) (* (- 1) (* b00 r00))) 0)))
 (let ((?x41 (* q00 r00)))
 (let ((?x1223 (* (- 1) ?x41)))
 (let ((?x37 (* p00 s00)))
 (let ((?x423 (* r q)))
 (let (($x573 (and (= (+ ?x423 (* (- 1) (* s p)) ?x37 ?x1223) 0) $x946 $x1286 $x1580 $x217 $x566)))
 (let (($x1245 (= (+ (* (- 1) ?x938) (* a00 q00) (* (- 1) ?x57) (* b p)) 0)))
 (let (($x1243 (= (+ (* (- 1) ?x659) (* (- 1) ?x47) (* s a) (* b00 r00)) 0)))
 (let (($x292 (and (= (+ (* (- 1) ?x423) (* s p) (* (- 1) ?x37) ?x41) 0) $x1243 $x1245 (= ?x401 0) $x217 $x566)))
 (rewrite (= $x292 $x573))))))))))))))))))))))))))))))))))))))))))))
 ))
 (let (($x121 (exists ((p Int) (a Int) (q Int) (b Int) (r Int) (s Int) )(! (let ((?x108 (- q p)))
 (let ((?x106 (- b a)))
 (let ((?x109 (- s r)))
 (let ((?x113 (- (* a a a ?x106 p p p r) (* a a a ?x106 p p p ?x108 r r ?x109))))
 (let ((?x115 (- (- ?x113 (* a ?x106 ?x106 ?x106 p p p r r ?x109)) (* a a a ?x106 ?x106 ?x106 p p p ?x108 r))))
 (let ((?x69 (* a00 q00 r)))
 (let ((?x66 (* a q00 r00)))
 (let ((?x65 (* b00 p00 r)))
 (let ((?x68 (+ (- (* (- 1) b00 p r00) (* a p00 s00)) ?x65 ?x66 (* a00 p s00))))
 (let ((?x70 (- ?x68 ?x69)))
 (let ((?x89 (- r s)))
 (let ((?x84 (- p q)))
 (let ((?x86 (- a b)))
 (let ((?x100 (- (* ?x86 ?x86 ?x86 b ?x84 ?x84 ?x84 ?x89) (* ?x86 ?x86 ?x86 b ?x84 ?x84 ?x84 q ?x89 ?x89 s))))
 (let ((?x102 (- (- ?x100 (* ?x86 b b b ?x84 ?x84 ?x84 ?x89 ?x89 s)) (* ?x86 ?x86 ?x86 b b b ?x84 ?x84 ?x84 q ?x89))))
 (let ((?x93 (+ (- (* (- 1) b00 ?x84 r00) (* ?x86 p00 s00)) (* b00 p00 ?x89) (* ?x86 q00 r00) (* a00 ?x84 s00))))
 (let (($x119 (or (not (= (* (- ?x93 (* a00 q00 ?x89)) ?x102) 0)) (not (= (* ?x70 ?x115) 0)))))
 (let ((?x81 (* a00 q00 s)))
 (let ((?x76 (* b p00 s00)))
 (let ((?x77 (- (+ (* b q00 r00) (* b00 p00 s)) (* b00 q r00))))
 (let ((?x59 (* b p)))
 (let ((?x60 (+ (- (+ (* (- 1) a q) (* a00 q00)) (* b00 p00)) ?x59)))
 (let ((?x51 (* b00 r00)))
 (let ((?x49 (* a s)))
 (let (($x53 (= (+ (- (* (- 1) b r) (* a00 s00)) ?x49 ?x51) 0)))
 (let ((?x41 (* q00 r00)))
 (let ((?x42 (+ (- (+ (* (- 1) q r) (* p s)) (* p00 s00)) ?x41)))
 (and (= ?x42 0) $x53 (= ?x60 0) (= ?x70 0) (= (- (+ (- ?x77 ?x76) (* a00 q s00)) ?x81) 0) $x119)))))))))))))))))))))))))))) :qid k!39))
 ))
 (let ((?x952 (lambda ((p Int) (a Int) (q Int) (b Int) (r Int) (s Int) )(let ((?x383 (* a00 s00 p)))
 (let ((?x438 (* q00 r00 a)))
 (let ((?x65 (* b00 p00 r)))
 (let ((?x401 (+ (* (- 1) (* b00 r00 p)) (* (- 1) (* p00 s00 a)) ?x65 ?x438 ?x383 (* (- 1) (* a00 q00 r)))))
 (let ((?x595 (+ q (* (- 1) p))))
 (let ((?x1329 (+ b (* (- 1) a))))
 (let ((?x790 (* (- 1) (* ?x1329 ?x1329 ?x1329 ?x595 r a a a p p p))))
 (let ((?x1454 (+ s (* (- 1) r))))
 (let ((?x874 (* (- 1) (* ?x1454 ?x1329 ?x595 r r a a a p p p))))
 (let ((?x347 (+ (* ?x1329 r a a a p p p) ?x874 (* (- 1) (* ?x1454 ?x1329 ?x1329 ?x1329 r r a p p p)) ?x790)))
 (let ((?x1574 (+ (* (- 1) (* b00 r00 (+ p (* (- 1) q)))) (* (- 1) (* p00 s00 (+ a (* (- 1) b)))) (* b00 p00 (+ r (* (- 1) s))) (* q00 r00 (+ a (* (- 1) b))) (* a00 s00 (+ p (* (- 1) q))) (* (- 1) (* a00 q00 (+ r (* (- 1) s)))))))
 (let ((?x263 (* (- 1) q)))
 (let ((?x265 (+ p ?x263)))
 (let ((?x286 (+ a (* (- 1) b))))
 (let ((?x346 (+ r (* (- 1) s))))
 (let ((?x1534 (* (- 1) (* ?x346 ?x286 ?x286 ?x286 ?x265 ?x265 ?x265 b b b q))))
 (let ((?x361 (* (- 1) (* ?x346 ?x346 ?x286 ?x286 ?x286 ?x265 ?x265 ?x265 s b q))))
 (let ((?x1598 (* ?x346 ?x286 ?x286 ?x286 ?x265 ?x265 ?x265 b)))
 (let ((?x1177 (+ ?x1598 ?x361 (* (- 1) (* ?x346 ?x346 ?x286 ?x265 ?x265 ?x265 s b b b)) ?x1534)))
 (let (($x566 (or (not (= (* ?x1177 ?x1574) 0)) (not (= (* ?x347 ?x401) 0)))))
 (let ((?x73 (* b00 p00 s)))
 (let ((?x326 (+ (* q00 r00 b) ?x73 (* (- 1) (* b00 r00 q)) (* (- 1) (* p00 s00 b)) (* a00 s00 q) (* (- 1) (* a00 q00 s)))))
 (let (($x217 (= ?x326 0)))
 (let ((?x59 (* b p)))
 (let ((?x55 (* a00 q00)))
 (let (($x1245 (= (+ (* (- 1) (* q a)) ?x55 (* (- 1) (* b00 p00)) ?x59) 0)))
 (let ((?x51 (* b00 r00)))
 (let ((?x392 (* s a)))
 (let (($x1243 (= (+ (* (- 1) (* r b)) (* (- 1) (* a00 s00)) ?x392 ?x51) 0)))
 (let ((?x41 (* q00 r00)))
 (let ((?x37 (* p00 s00)))
 (let ((?x146 (* (- 1) ?x37)))
 (let ((?x947 (* s p)))
 (let (($x292 (and (= (+ (* (- 1) (* r q)) ?x947 ?x146 ?x41) 0) $x1243 $x1245 (= ?x401 0) $x217 $x566)))
 (let ((?x108 (- q p)))
 (let ((?x106 (- b a)))
 (let ((?x109 (- s r)))
 (let ((?x113 (- (* a a a ?x106 p p p r) (* a a a ?x106 p p p ?x108 r r ?x109))))
 (let ((?x115 (- (- ?x113 (* a ?x106 ?x106 ?x106 p p p r r ?x109)) (* a a a ?x106 ?x106 ?x106 p p p ?x108 r))))
 (let ((?x69 (* a00 q00 r)))
 (let ((?x66 (* a q00 r00)))
 (let ((?x68 (+ (- (* (- 1) b00 p r00) (* a p00 s00)) ?x65 ?x66 (* a00 p s00))))
 (let ((?x70 (- ?x68 ?x69)))
 (let ((?x89 (- r s)))
 (let ((?x84 (- p q)))
 (let ((?x86 (- a b)))
 (let ((?x100 (- (* ?x86 ?x86 ?x86 b ?x84 ?x84 ?x84 ?x89) (* ?x86 ?x86 ?x86 b ?x84 ?x84 ?x84 q ?x89 ?x89 s))))
 (let ((?x102 (- (- ?x100 (* ?x86 b b b ?x84 ?x84 ?x84 ?x89 ?x89 s)) (* ?x86 ?x86 ?x86 b b b ?x84 ?x84 ?x84 q ?x89))))
 (let ((?x93 (+ (- (* (- 1) b00 ?x84 r00) (* ?x86 p00 s00)) (* b00 p00 ?x89) (* ?x86 q00 r00) (* a00 ?x84 s00))))
 (let (($x119 (or (not (= (* (- ?x93 (* a00 q00 ?x89)) ?x102) 0)) (not (= (* ?x70 ?x115) 0)))))
 (let ((?x81 (* a00 q00 s)))
 (let ((?x76 (* b p00 s00)))
 (let ((?x80 (+ (- (- (+ (* b q00 r00) ?x73) (* b00 q r00)) ?x76) (* a00 q s00))))
 (let (($x61 (= (+ (- (+ (* (- 1) a q) ?x55) (* b00 p00)) ?x59) 0)))
 (let (($x53 (= (+ (- (* (- 1) b r) (* a00 s00)) (* a s) ?x51) 0)))
 (let (($x44 (= (+ (- (+ (* (- 1) q r) (* p s)) ?x37) ?x41) 0)))
 (let (($x120 (and $x44 $x53 $x61 (= ?x70 0) (= (- ?x80 ?x81) 0) $x119)))
 (rewrite (= $x120 $x292))))))))))))))))))))))))))))))))))))))))))))))))))))))))))))
 ))
 (let ((@x122 (asserted $x121)))
 (let ((@x1133 (mp (mp @x122 (quant-intro (proof-bind ?x952) (= $x121 $x526)) $x526) (rewrite (= $x526 $x526)) $x526)))
 (let ((@x694 (mp (mp @x1133 (quant-intro (proof-bind ?x542) (= $x526 $x348)) $x348) (quant-intro (proof-bind ?x1277) (= $x348 $x627)) $x627)))
 (let ((@x319 (mp (mp~ @x694 (sk (~ $x627 $x314)) $x314) (rewrite (= $x314 $x1535)) $x1535)))
 (let ((@x918 (and-elim @x319 $x1447)))
 (let ((@x1352 (unit-resolution ((_ th-lemma arith triangle-eq) (or (not $x1447) $x631)) @x918 $x631)))
 (let (($x630 (<= ?x940 0)))
 (let ((@x1619 (unit-resolution ((_ th-lemma arith triangle-eq) (or (not $x1447) $x630)) @x918 $x630)))
 (let (($x1364 (not (<= ?x1450 0))))
 (let (($x665 (>= ?x1538 0)))
 (let (($x640 (>= ?x545 0)))
 (let ((@x754 (and-elim @x319 $x1489)))
 (let ((@x486 (unit-resolution ((_ th-lemma arith triangle-eq) (or (not $x1489) $x640)) @x754 $x640)))
 (let (($x1350 (<= ?x545 0)))
 (let ((@x318 (unit-resolution ((_ th-lemma arith triangle-eq) (or (not $x1489) $x1350)) @x754 $x1350)))
 (let ((@x828 (lemma ((_ th-lemma arith farkas 1 1 1 1 1) (hypothesis (not $x665)) @x1619 @x318 @x1352 @x486 false) $x665)))
 (let (($x661 (<= ?x1538 0)))
 (let ((@x201 (lemma ((_ th-lemma arith farkas 1 1 1 1 1) (hypothesis (not $x661)) @x1619 @x318 @x1352 @x486 false) $x661)))
 (let ((@x683 (unit-resolution ((_ th-lemma arith triangle-eq) (or $x1323 (not $x661) (not $x665))) @x201 @x828 $x1323)))
 (let (($x654 (>= ?x1450 0)))
 (let ((@x1023 (unit-resolution ((_ th-lemma arith triangle-eq) (or $x704 $x1364 (not $x654))) (lemma ((_ th-lemma arith farkas 1 1 1) (hypothesis (not $x654)) @x1619 @x1352 false) $x654) (unit-resolution (and-elim @x319 $x760) @x683 $x667) $x1364)))
 ((_ th-lemma arith farkas 1 1 1) @x1023 @x1619 @x1352 false)))))))))))))))))))))))))))))))))))))))))))))))))))))))))))))))))))))))))))))))))))))))))))))))))))))))))))))))))))))))))))))))))))))))))))))))))))))))))))))))))))))))))))))))))))))))))))))

(:added-eqs                 14
 :arith-assert-diseq        3
 :arith-assert-lower        23
 :arith-assert-upper        22
 :arith-conflicts           4
 :arith-eq-adapter          11
 :arith-fixed-eqs           10
 :arith-grobner             4
 :arith-max-min             768
 :arith-nonlinear-horner    44
 :arith-num-rows            12
 :arith-pivots              5
 :arith-pseudo-nonlinear    8
 :arith-row-summations      3
 :arith-tableau-max-columns 109
 :arith-tableau-max-rows    12
 :conflicts                 4
 :decisions                 7
 :del-clause                27
 :final-checks              4
 :max-memory                223.89
 :memory                    3.30
 :mk-bool-var               39
 :mk-clause                 40
 :num-allocs                2798426835209.00
 :num-checks                1
 :propagations              19
 :rlimit-count              47284645
 :time                      33.42
 :total-time                33.35)
